h -1 0
h 2 -3 0
h 4 3 0
2782632439235394104 -4 0
h 2 -1 0
h -2 5 0
7713270500047206693 -5 0
h 6 -1 0
2537223588700162115 -6 0
h 1 7 0
851602842840627645 -7 0
h 8 0
2178842629889057297 -8 0
855290463504181658 -9 0
h 10 0
966701909521661884 -10 0
561179699971260219 -11 0
